results/x-10M/X-n101-k25.vrp_seed-4.out
27591	7310
