results/x-10M/X-n101-k25.vrp_seed-4.vrp.sol
Route #1: 5 12 58
Route #2: 35 46 31
Route #3: 68 90 84 66
Route #4: 57 72 36 29 43 45 2 7
Route #5: 28 42 78 65 25
Route #6: 17 8
Route #7: 69 16 55 76
Route #8: 54 70 1
Route #9: 38 47 26 48 96 64 34
Route #10: 21 56 94 80
Route #11: 27 97 19
Route #12: 50 91 52
Route #13: 63 77 3
Route #14: 86 9 92
Route #15: 30 85 11 79
Route #16: 83 51 81
Route #17: 24 95 73 53 33 32
Route #18: 74 13 4
Route #19: 100 61 23
Route #20: 20 41 22 15
Route #21: 71 62 99 98 89
Route #22: 59 60 82
Route #23: 93 75
Route #24: 87 37 6 49 14
Route #25: 39 10 18
Route #26: 40 88 67 44
Cost 27591.000000